
Gurobi 11.0.3 (win64) logging started Tue Sep  3 15:46:15 2024

Set parameter LogFile to value "C:\Users\ealvarezq\Desktop\D.Representative_days_based_on_RES_and_Demand\IEEE118_mod2_ByStages_nc30/openStarNet_IEEE118_mod2_ByStages_nc30.log"
Set parameter Method to value 2
Set parameter MIPFocus to value 1
Set parameter Presolve to value 2
Set parameter RINS to value 100
Set parameter MIPGap to value 0.01
Set parameter Threads to value 24
Set parameter TimeLimit to value 259200
Set parameter IterationLimit to value 760000000
Gurobi Optimizer version 11.0.3 build v11.0.3rc0 (win64 - Windows Server 2019.0 (17763.2))

CPU model: AMD Ryzen Threadripper PRO 3955WX 16-Cores, instruction set [SSE2|AVX|AVX2]
Thread count: 16 physical cores, 32 logical processors, using up to 24 threads

Optimize a model with 42633 rows, 31589 columns and 109864 nonzeros
Model fingerprint: 0xbefe3703
Variable types: 31555 continuous, 34 integer (34 binary)
Coefficient statistics:
  Matrix range     [2e-03, 9e+03]
  Objective range  [1e+00, 1e+00]
  Bounds range     [1e-04, 2e+00]
  RHS range        [2e-04, 2e+00]
Presolve removed 28841 rows and 14615 columns
Presolve time: 0.25s
Presolved: 13792 rows, 16974 columns, 50399 nonzeros
Variable types: 16940 continuous, 34 integer (34 binary)
Root relaxation presolved: 13792 rows, 16974 columns, 50399 nonzeros

Root barrier log...

Ordering time: 0.01s

Barrier statistics:
 Dense cols : 34
 AA' NZ     : 6.247e+04
 Factor NZ  : 2.421e+05 (roughly 14 MB of memory)
 Factor Ops : 5.059e+06 (less than 1 second per iteration)
 Threads    : 23

                  Objective                Residual
Iter       Primal          Dual         Primal    Dual     Compl     Time
   0   8.66987162e+06 -4.77652522e+08  1.51e+01 2.47e+03  5.07e+04     1s
   1   1.98240474e+06 -1.79976156e+08  3.11e+00 4.61e-09  1.00e+04     1s
   2   5.81420816e+05 -1.32786620e+08  6.32e-01 7.32e-09  4.26e+03     1s
   3   3.55725147e+05 -2.53009564e+07  2.01e-01 9.75e-10  7.70e+02     1s
   4   2.22773559e+05 -4.26683020e+06  1.43e-02 1.79e-10  1.13e+02     1s
   5   1.09349854e+05 -1.08076031e+06  3.58e-03 1.02e-10  2.95e+01     1s
   6   3.83219649e+04 -2.43527907e+05  7.69e-04 2.36e-11  6.93e+00     1s
   7   1.66725775e+04 -8.59120998e+04  2.29e-04 1.34e-11  2.52e+00     1s
   8   8.32448788e+03 -2.70033177e+04  7.38e-05 3.96e-12  8.68e-01     1s
   9   5.28768090e+03 -9.36979387e+03  3.31e-05 9.51e-12  3.60e-01     2s
  10   3.23532428e+03 -2.80595279e+03  1.54e-05 6.79e-12  1.48e-01     2s
  11   2.20692913e+03 -9.36218825e+02  8.46e-06 7.22e-12  7.72e-02     2s
  12   1.55079923e+03 -3.11383538e+01  4.17e-06 4.98e-12  3.88e-02     2s
  13   1.22960446e+03  3.59758776e+02  2.21e-06 8.15e-12  2.14e-02     2s
  14   1.04182026e+03  5.52521232e+02  1.09e-06 1.27e-11  1.20e-02     2s
  15   9.39735795e+02  6.98230092e+02  5.10e-07 5.68e-12  5.93e-03     2s
  16   8.85051920e+02  7.76780377e+02  2.14e-07 8.44e-12  2.66e-03     2s
  17   8.64048993e+02  8.19751324e+02  1.02e-07 5.29e-12  1.09e-03     2s
  18   8.53905584e+02  8.30382880e+02  4.99e-08 5.93e-12  5.78e-04     2s
  19   8.49007882e+02  8.37267739e+02  2.52e-08 5.78e-12  2.88e-04     2s
  20   8.46265947e+02  8.41298945e+02  1.16e-08 9.34e-12  1.22e-04     2s
  21   8.44489569e+02  8.43000398e+02  2.91e-09 9.04e-12  3.66e-05     3s
  22   8.43926511e+02  8.43694223e+02  1.37e-09 6.69e-12  5.70e-06     3s
  23   8.43858071e+02  8.43837576e+02  1.43e-09 1.15e-11  5.03e-07     4s
  24   8.43847135e+02  8.43844270e+02  5.41e-10 9.36e-12  7.03e-08     4s
  25   8.43846294e+02  8.43846290e+02  1.83e-10 1.21e-11  1.04e-10     5s

Barrier solved model in 25 iterations and 4.74 seconds (0.37 work units)
Optimal objective 8.43846294e+02


Root relaxation: objective 8.438463e+02, 1049 iterations, 4.55 seconds (0.29 work units)

    Nodes    |    Current Node    |     Objective Bounds      |     Work
 Expl Unexpl |  Obj  Depth IntInf | Incumbent    BestBd   Gap | It/Node Time

     0     0  843.84629    0   22          -  843.84629      -     -    5s
H    0     0                    6245.0987237  843.84629  86.5%     -    5s
H    0     0                    2951.9484386  843.84629  71.4%     -    5s
     0     0  865.19735    0   21 2951.94844  865.19735  70.7%     -    6s
     0     0  867.01753    0   21 2951.94844  867.01753  70.6%     -    6s
H    0     0                    1133.2048700  867.01753  23.5%     -    7s
     0     0  867.51709    0   22 1133.20487  867.51709  23.4%     -    7s
     0     0  867.52446    0   22 1133.20487  867.52446  23.4%     -    7s
     0     0  869.04896    0   21 1133.20487  869.04896  23.3%     -    8s
     0     0  869.10307    0   21 1133.20487  869.10307  23.3%     -    8s
     0     0  869.10723    0   21 1133.20487  869.10723  23.3%     -    8s
     0     0  869.10729    0   21 1133.20487  869.10729  23.3%     -    8s
     0     0  869.46738    0   20 1133.20487  869.46738  23.3%     -    8s
     0     0  869.46921    0   20 1133.20487  869.46921  23.3%     -    9s
     0     0  869.47284    0   20 1133.20487  869.47284  23.3%     -    9s
H    0     0                    1008.4561078  869.47284  13.8%     -   45s
     0     2  869.47284    0   20 1008.45611  869.47284  13.8%     -   46s
     7    12     cutoff    3      1008.45611  901.94279  10.6%   626   50s
    70    52     cutoff    7      1008.45611  933.28228  7.45%   401   55s
   207    92  985.62335   12    9 1008.45611  937.29484  7.06%   277   60s
   417   115 1002.67921   14    8 1008.45611  937.29484  7.06%   234   65s
   650   100     cutoff   13      1008.45611  946.10056  6.18%   212   70s
   973    49     cutoff   14      1008.45611  946.10056  6.18%   179   75s

Cutting planes:
  Gomory: 1
  Implied bound: 61
  MIR: 160
  Flow cover: 2
  RLT: 1

Explored 1204 nodes (204318 simplex iterations) in 80.45 seconds (59.37 work units)
Thread count was 24 (of 32 available processors)

Solution count 4: 1008.46 1133.2 2951.95 6245.1 

Optimal solution found (tolerance 1.00e-02)
Best objective 1.008456107819e+03, best bound 1.000958564081e+03, gap 0.7435%

Gurobi 11.0.3 (win64) logging started Tue Sep  3 15:47:43 2024

Set parameter LogFile to value "C:\Users\ealvarezq\Desktop\D.Representative_days_based_on_RES_and_Demand\IEEE118_mod2_ByStages_nc30/openStarNet_IEEE118_mod2_ByStages_nc30.log"
Set parameter Method to value 2
Set parameter MIPFocus to value 1
Set parameter Presolve to value 2
Set parameter RINS to value 100
Set parameter MIPGap to value 0.01
Set parameter Threads to value 24
Set parameter TimeLimit to value 259200
Set parameter IterationLimit to value 760000000
Gurobi Optimizer version 11.0.3 build v11.0.3rc0 (win64 - Windows Server 2019.0 (17763.2))

CPU model: AMD Ryzen Threadripper PRO 3955WX 16-Cores, instruction set [SSE2|AVX|AVX2]
Thread count: 16 physical cores, 32 logical processors, using up to 24 threads

Optimize a model with 42633 rows, 31555 columns and 105750 nonzeros
Model fingerprint: 0x239dbe06
Coefficient statistics:
  Matrix range     [2e-03, 9e+03]
  Objective range  [1e+00, 1e+00]
  Bounds range     [1e-04, 2e+00]
  RHS range        [2e-04, 3e+02]
Presolve removed 31728 rows and 13849 columns
Presolve time: 0.08s
Presolved: 10905 rows, 17796 columns, 42424 nonzeros

Ordering time: 0.00s

Barrier statistics:
 AA' NZ     : 3.583e+04
 Factor NZ  : 1.429e+05 (roughly 13 MB of memory)
 Factor Ops : 2.051e+06 (less than 1 second per iteration)
 Threads    : 24

                  Objective                Residual
Iter       Primal          Dual         Primal    Dual     Compl     Time
   0   1.57146301e+07 -2.93914209e+08  9.46e+01 1.68e+02  3.03e+04     0s
   1   1.72488103e+06 -8.20393104e+07  9.04e+00 3.18e-12  3.76e+03     0s
   2   4.27903489e+05 -1.44369146e+07  1.37e+00 2.27e-12  5.33e+02     0s
   3   1.60076020e+05 -2.07706379e+06  3.81e-02 2.27e-12  5.94e+01     0s
   4   4.81317937e+04 -2.42431456e+05  4.07e-03 2.27e-12  7.51e+00     0s
   5   1.17348793e+04 -7.26619715e+04  5.40e-04 9.09e-13  2.17e+00     1s
   6   5.72881809e+03 -2.07288005e+04  9.31e-05 6.52e-13  6.81e-01     1s
   7   3.92726558e+03 -6.82434335e+03  3.91e-05 5.01e-13  2.77e-01     1s
   8   2.86920444e+03 -2.41465522e+03  2.25e-05 4.33e-13  1.36e-01     1s
   9   1.92017830e+03 -6.80333461e+02  1.02e-05 4.67e-13  6.69e-02     1s
  10   1.55535960e+03  2.33377133e+02  5.77e-06 3.68e-13  3.40e-02     2s
  11   1.32392086e+03  7.04504554e+02  3.18e-06 6.06e-13  1.59e-02     2s
  12   1.22087451e+03  8.19879873e+02  2.11e-06 4.40e-13  1.03e-02     2s
  13   1.12314320e+03  9.12207321e+02  1.12e-06 3.82e-13  5.43e-03     2s
  14   1.05794506e+03  9.57513650e+02  4.71e-07 5.02e-13  2.58e-03     2s
  15   1.02894058e+03  9.86315560e+02  1.85e-07 5.39e-13  1.10e-03     2s
  16   1.01009655e+03  1.00100758e+03  1.17e-08 5.69e-13  2.34e-04     2s
  17   1.00913078e+03  1.00595886e+03  4.42e-09 6.65e-13  8.16e-05     2s
  18   1.00859370e+03  1.00821541e+03  7.07e-10 5.09e-13  9.73e-06     3s
  19   1.00848280e+03  1.00842051e+03  1.24e-10 6.13e-13  1.60e-06     3s
  20   1.00845669e+03  1.00845467e+03  2.04e-10 7.09e-13  5.21e-08     3s
  21   1.00845611e+03  1.00845611e+03  9.34e-10 4.22e-13  6.99e-11     3s

Barrier solved model in 21 iterations and 3.31 seconds (0.16 work units)
Optimal objective 1.00845611e+03

Crossover log...

    3135 DPushes remaining with DInf 0.0000000e+00                 3s
       0 DPushes remaining with DInf 0.0000000e+00                 3s

     141 PPushes remaining with PInf 0.0000000e+00                 3s
       0 PPushes remaining with PInf 0.0000000e+00                 3s

  Push phase complete: Pinf 0.0000000e+00, Dinf 2.7145866e-12      3s

Iteration    Objective       Primal Inf.    Dual Inf.      Time
     675    1.0084561e+03   0.000000e+00   0.000000e+00      3s

Solved in 675 iterations and 3.38 seconds (0.19 work units)
Optimal objective  1.008456108e+03
